Bruniera/ragionamento automatico/progetto/benchmark/asp/mid26.lp
start(0).
limit(6).
n(14).
strada(0,1,0).
strada(0,2,5).
strada(0,3,4).
strada(0,4,12).
strada(0,7,14).
strada(0,8,10).
strada(0,11,6).
strada(0,12,15).
strada(1,0,8).
strada(1,2,4).
strada(1,3,1).
strada(1,4,10).
strada(1,7,10).
strada(1,8,10).
strada(1,10,10).
strada(1,11,19).
strada(2,1,5).
strada(2,4,2).
strada(2,6,6).
strada(2,7,15).
strada(2,8,16).
strada(2,10,17).
strada(2,12,14).
strada(3,0,12).
strada(3,1,0).
strada(3,4,4).
strada(3,6,4).
strada(3,7,4).
strada(3,11,20).
strada(3,12,12).
strada(4,0,2).
strada(4,1,4).
strada(4,5,4).
strada(4,8,4).
strada(4,12,3).
strada(5,3,11).
strada(5,7,3).
strada(5,10,10).
strada(5,11,7).
strada(5,12,18).
strada(5,13,9).
strada(6,5,8).
strada(6,11,8).
strada(6,13,3).
strada(7,3,18).
strada(7,5,1).
strada(7,8,9).
strada(7,10,19).
strada(8,3,17).
strada(8,4,19).
strada(8,6,4).
strada(8,7,9).
strada(8,9,12).
strada(8,10,12).
strada(8,11,12).
strada(9,0,3).
strada(9,1,2).
strada(9,3,19).
strada(9,4,15).
strada(9,5,14).
strada(9,6,0).
strada(9,8,17).
strada(10,3,16).
strada(10,6,19).
strada(10,7,3).
strada(10,8,4).
strada(10,13,1).
strada(11,1,16).
strada(11,3,15).
strada(11,4,16).
strada(11,5,10).
strada(11,8,18).
strada(11,12,8).
strada(12,0,7).
strada(12,1,13).
strada(12,2,16).
strada(12,6,10).
strada(12,9,5).
strada(12,10,3).
strada(13,0,20).
strada(13,1,12).
strada(13,7,12).
strada(13,9,16).
strada(13,11,5).
strada(13,12,13).
