Bruniera/ragionamento automatico/progetto/benchmark/minizinc/mid26.dzn
start = 1;
limit = 6;
n = 14;
m=[|-1,0,5,4,12,-1,-1,14,10,-1,-1,6,15,-1,
|8,-1,4,1,10,-1,-1,10,10,-1,10,19,-1,-1,
|-1,5,-1,-1,2,-1,6,15,16,-1,17,-1,14,-1,
|12,0,-1,-1,4,-1,4,4,-1,-1,-1,20,12,-1,
|2,4,-1,-1,-1,4,-1,-1,4,-1,-1,-1,3,-1,
|-1,-1,-1,11,-1,-1,-1,3,-1,-1,10,7,18,9,
|-1,-1,-1,-1,-1,8,-1,-1,-1,-1,-1,8,-1,3,
|-1,-1,-1,18,-1,1,-1,-1,9,-1,19,-1,-1,-1,
|-1,-1,-1,17,19,-1,4,9,-1,12,12,12,-1,-1,
|3,2,-1,19,15,14,0,-1,17,-1,-1,-1,-1,-1,
|-1,-1,-1,16,-1,-1,19,3,4,-1,-1,-1,-1,1,
|-1,16,-1,15,16,10,-1,-1,18,-1,-1,-1,8,-1,
|7,13,16,-1,-1,-1,10,-1,-1,5,3,-1,-1,-1,
|20,12,-1,-1,-1,-1,-1,12,-1,16,-1,5,13,-1,
|]
;